%SETS
JOBS = 1..25;
MACHINES = 1..50;
SPEED    = 3;

time = array3d(JOBS,MACHINES,1..SPEED,[26, 6, 4, 26, 6, 4, 16, 3, 2, 1, 1, 1, 1, 1, 1, 4, 1, 1, 40, 10, 7, 4, 1, 1, 3, 1, 1, 11, 2, 2, 17, 4, 3, 30, 7, 5, 41, 10, 7, 8, 1, 1, 62, 15, 11, 1, 1, 1, 12, 2, 2, 5, 1, 1, 10, 2, 1, 15, 3, 2, 17, 4, 3, 13, 3, 2, 6, 1, 1, 6, 1, 1, 6, 1, 1, 33, 8, 6, 13, 3, 2, 22, 5, 4, 17, 4, 3, 14, 3, 2, 34, 8, 6, 21, 5, 3, 9, 2, 1, 91, 22, 16, 6, 1, 1, 3, 1, 1, 24, 6, 4, 17, 4, 3, 5, 1, 1, 2, 1, 1, 20, 4, 3, 8, 2, 1, 2, 1, 1, 17, 4, 3, 25, 6, 4, 1, 1, 1, 17, 4, 3, 2, 1, 1, 40, 9, 7, 36, 8, 6, 7, 1, 1, 2, 1, 1, 64, 15, 11, 18, 4, 3, 3, 1, 1, 3, 1, 1, 47, 11, 8, 20, 5, 3, 7, 1, 1, 22, 5, 3, 9, 2, 1, 40, 9, 7, 17, 4, 3, 86, 21, 15, 19, 4, 3, 60, 14, 10, 7, 1, 1, 19, 4, 3, 18, 4, 3, 43, 10, 7, 1, 1, 1, 46, 11, 8, 42, 10, 7, 13, 3, 2, 1, 1, 1, 37, 9, 6, 29, 7, 5, 65, 15, 11, 21, 5, 3, 88, 21, 15, 9, 2, 1, 10, 2, 1, 33, 8, 6, 31, 7, 5, 33, 8, 6, 58, 14, 10, 32, 7, 5, 29, 7, 5, 47, 11, 8, 26, 6, 4, 9, 2, 1, 45, 11, 8, 7, 1, 1, 31, 7, 5, 19, 4, 3, 12, 3, 2, 5, 1, 1, 56, 13, 10, 2, 1, 1, 42, 10, 7, 29, 7, 5, 16, 3, 2, 28, 6, 5, 8, 2, 1, 51, 12, 9, 5, 1, 1, 22, 5, 4, 16, 3, 2, 28, 7, 5, 16, 4, 3, 78, 19, 14, 49, 12, 8, 59, 14, 10, 1, 1, 1, 4, 1, 1, 16, 4, 3, 34, 8, 6, 11, 2, 2, 21, 5, 3, 1, 1, 1, 26, 6, 4, 29, 7, 5, 13, 3, 2, 3, 1, 1, 13, 3, 2, 34, 8, 6, 22, 5, 4, 55, 13, 10, 22, 5, 4, 5, 1, 1, 23, 5, 4, 1, 1, 1, 35, 8, 6, 5, 1, 1, 60, 14, 10, 16, 4, 2, 15, 3, 2, 3, 1, 1, 42, 10, 7, 64, 15, 11, 30, 7, 5, 28, 6, 5, 31, 7, 5, 35, 8, 6, 32, 7, 5, 3, 1, 1, 28, 6, 5, 62, 15, 11, 1, 1, 1, 5, 1, 1, 37, 9, 6, 1, 1, 1, 8, 2, 1, 50, 12, 9, 11, 2, 2, 59, 14, 10, 8, 2, 1, 12, 3, 2, 2, 1, 1, 43, 10, 7, 70, 17, 12, 5, 1, 1, 9, 2, 1, 29, 7, 5, 2, 1, 1, 1, 1, 1, 10, 2, 1, 12, 3, 2, 20, 5, 3, 20, 5, 3, 10, 2, 1, 14, 3, 2, 7, 1, 1, 5, 1, 1, 38, 9, 6, 3, 1, 1, 15, 3, 2, 3, 1, 1, 43, 10, 7, 47, 11, 8, 3, 1, 1, 33, 8, 5, 66, 16, 11, 12, 3, 2, 38, 9, 6, 66, 16, 11, 1, 1, 1, 8, 2, 1, 1, 1, 1, 5, 1, 1, 1, 1, 1, 1, 1, 1, 27, 6, 4, 8, 2, 1, 48, 11, 8, 10, 2, 1, 65, 16, 11, 3, 1, 1, 20, 5, 3, 9, 2, 1, 42, 10, 7, 10, 2, 1, 3, 1, 1, 15, 3, 2, 7, 1, 1, 35, 8, 6, 34, 8, 6, 1, 1, 1, 1, 1, 1, 64, 15, 11, 10, 2, 1, 9, 2, 1, 8, 2, 1, 7, 1, 1, 38, 9, 6, 7, 1, 1, 32, 8, 5, 28, 7, 5, 20, 5, 3, 29, 7, 5, 4, 1, 1, 16, 3, 2, 17, 4, 3, 1, 1, 1, 6, 1, 1, 70, 17, 12, 27, 6, 5, 99, 24, 17, 11, 2, 2, 37, 9, 6, 23, 5, 4, 23, 5, 4, 3, 1, 1, 6, 1, 1, 1, 1, 1, 18, 4, 3, 10, 2, 1, 5, 1, 1, 12, 2, 2, 19, 4, 3, 32, 7, 5, 23, 5, 4, 26, 6, 4, 23, 5, 4, 12, 2, 2, 10, 2, 1, 21, 5, 3, 35, 8, 6, 65, 15, 11, 45, 11, 8, 20, 5, 3, 45, 11, 8, 1, 1, 1, 41, 10, 7, 5, 1, 1, 29, 7, 5, 45, 11, 8, 9, 2, 1, 13, 3, 2, 109, 26, 19, 7, 1, 1, 36, 8, 6, 13, 3, 2, 9, 2, 1, 38, 9, 6, 15, 3, 2, 32, 7, 5, 6, 1, 1, 44, 11, 8, 32, 7, 5, 17, 4, 3, 40, 9, 7, 65, 15, 11, 40, 9, 7, 9, 2, 1, 32, 8, 5, 24, 6, 4, 47, 11, 8, 13, 3, 2, 15, 3, 2, 2, 1, 1, 6, 1, 1, 19, 4, 3, 19, 4, 3, 32, 7, 5, 8, 2, 1, 3, 1, 1, 5, 1, 1, 14, 3, 2, 5, 1, 1, 3, 1, 1, 33, 8, 6, 62, 15, 11, 1, 1, 1, 1, 1, 1, 8, 2, 1, 22, 5, 4, 72, 17, 12, 22, 5, 4, 29, 7, 5, 27, 6, 4, 75, 18, 13, 50, 12, 9, 11, 2, 2, 44, 10, 8, 7, 1, 1, 110, 27, 19, 13, 3, 2, 20, 5, 3, 27, 6, 4, 9, 2, 1, 52, 12, 9, 118, 29, 21, 21, 5, 3, 6, 1, 1, 8, 2, 1, 44, 10, 7, 21, 5, 3, 20, 4, 3, 4, 1, 1, 34, 8, 6, 4, 1, 1, 5, 1, 1, 22, 5, 4, 24, 6, 4, 5, 1, 1, 70, 17, 12, 31, 7, 5, 41, 10, 7, 39, 9, 7, 19, 4, 3, 25, 6, 4, 1, 1, 1, 22, 5, 4, 24, 5, 4, 28, 6, 5, 5, 1, 1, 10, 2, 1, 93, 23, 16, 8, 2, 1, 31, 7, 5, 7, 1, 1, 22, 5, 3, 53, 13, 9, 43, 10, 7, 1, 1, 1, 14, 3, 2, 12, 3, 2, 59, 14, 10, 1, 1, 1, 15, 3, 2, 103, 25, 18, 1, 1, 1, 28, 7, 5, 34, 8, 6, 2, 1, 1, 7, 1, 1, 16, 4, 3, 5, 1, 1, 69, 17, 12, 32, 7, 5, 2, 1, 1, 53, 13, 9, 8, 2, 1, 13, 3, 2, 25, 6, 4, 17, 4, 3, 19, 4, 3, 73, 17, 13, 12, 3, 2, 19, 4, 3, 5, 1, 1, 1, 1, 1, 19, 4, 3, 2, 1, 1, 29, 7, 5, 6, 1, 1, 18, 4, 3, 43, 10, 7, 30, 7, 5, 14, 3, 2, 29, 7, 5, 10, 2, 1, 62, 15, 11, 9, 2, 1, 24, 6, 4, 15, 3, 2, 1, 1, 1, 13, 3, 2, 23, 5, 4, 16, 4, 2, 71, 17, 12, 3, 1, 1, 36, 8, 6, 25, 6, 4, 11, 2, 2, 20, 5, 3, 3, 1, 1, 23, 5, 4, 3, 1, 1, 23, 5, 4, 46, 11, 8, 13, 3, 2, 1, 1, 1, 6, 1, 1, 21, 5, 3, 24, 6, 4, 76, 18, 13, 58, 14, 10, 8, 2, 1, 3, 1, 1, 44, 10, 8, 19, 4, 3, 87, 21, 15, 1, 1, 1, 11, 2, 2, 35, 8, 6, 21, 5, 3, 43, 10, 7, 35, 8, 6, 11, 2, 2, 12, 3, 2, 6, 1, 1, 42, 10, 7, 14, 3, 2, 48, 11, 8, 76, 18, 13, 10, 2, 1, 11, 2, 2, 16, 4, 3, 35, 8, 6, 1, 1, 1, 14, 3, 2, 41, 10, 7, 4, 1, 1, 36, 8, 6, 11, 2, 1, 1, 1, 1, 33, 8, 6, 50, 12, 9, 97, 23, 17, 4, 1, 1, 23, 5, 4, 8, 2, 1, 55, 13, 10, 2, 1, 1, 5, 1, 1, 2, 1, 1, 9, 2, 1, 79, 19, 14, 11, 2, 2, 21, 5, 3, 13, 3, 2, 102, 24, 18, 32, 7, 5, 47, 11, 8, 3, 1, 1, 71, 17, 12, 8, 2, 1, 30, 7, 5, 9, 2, 1, 27, 6, 4, 1, 1, 1, 12, 3, 2, 78, 19, 14, 3, 1, 1, 11, 2, 2, 69, 17, 12, 1, 1, 1, 47, 11, 8, 47, 11, 8, 39, 9, 7, 55, 13, 9, 12, 3, 2, 9, 2, 1, 19, 4, 3, 8, 2, 1, 7, 1, 1, 1, 1, 1, 11, 2, 2, 4, 1, 1, 36, 9, 6, 29, 7, 5, 51, 12, 9, 16, 4, 3, 7, 1, 1, 36, 9, 6, 5, 1, 1, 12, 3, 2, 25, 6, 4, 26, 6, 4, 17, 4, 3, 26, 6, 4, 6, 1, 1, 16, 4, 3, 9, 2, 1, 4, 1, 1, 1, 1, 1, 5, 1, 1, 13, 3, 2, 28, 6, 5, 7, 1, 1, 54, 13, 9, 1, 1, 1, 42, 10, 7, 16, 4, 2, 9, 2, 1, 3, 1, 1, 23, 5, 4, 21, 5, 3, 30, 7, 5, 49, 12, 8, 15, 3, 2, 76, 18, 13, 109, 26, 19, 3, 1, 1, 20, 5, 3, 23, 5, 4, 1, 1, 1, 4, 1, 1, 35, 8, 6, 12, 2, 2, 43, 10, 7, 127, 31, 23, 22, 5, 4, 1, 1, 1, 4, 1, 1, 28, 6, 5, 38, 9, 6, 1, 1, 1, 26, 6, 4, 19, 4, 3, 3, 1, 1, 2, 1, 1, 79, 19, 14, 82, 20, 14, 9, 2, 1, 12, 3, 2, 3, 1, 1, 7, 1, 1, 10, 2, 1, 30, 7, 5, 14, 3, 2, 25, 6, 4, 27, 6, 4, 19, 4, 3, 20, 4, 3, 1, 1, 1, 26, 6, 4, 30, 7, 5, 113, 27, 20, 16, 3, 2, 29, 7, 5, 14, 3, 2, 6, 1, 1, 3, 1, 1, 2, 1, 1, 6, 1, 1, 13, 3, 2, 1, 1, 1, 1, 1, 1, 38, 9, 6, 57, 14, 10, 9, 2, 1, 13, 3, 2, 67, 16, 12, 13, 3, 2, 17, 4, 3, 1, 1, 1, 18, 4, 3, 32, 7, 5, 8, 2, 1, 16, 3, 2, 1, 1, 1, 23, 5, 4, 31, 7, 5, 1, 1, 1, 16, 4, 3, 2, 1, 1, 101, 24, 18, 14, 3, 2, 17, 4, 3, 17, 4, 3, 69, 17, 12, 26, 6, 4, 33, 8, 6, 23, 5, 4, 19, 4, 3, 44, 10, 7, 46, 11, 8, 23, 5, 4, 18, 4, 3, 13, 3, 2, 18, 4, 3, 1, 1, 1, 8, 1, 1, 41, 10, 7, 69, 17, 12, 1, 1, 1, 1, 1, 1, 69, 16, 12, 48, 11, 8, 17, 4, 3, 73, 18, 13, 7, 1, 1, 9, 2, 1, 73, 18, 13, 10, 2, 1, 99, 24, 17, 3, 1, 1, 24, 5, 4, 24, 5, 4, 4, 1, 1, 5, 1, 1, 13, 3, 2, 17, 4, 3, 10, 2, 1, 28, 7, 5, 76, 18, 13, 49, 12, 8, 4, 1, 1, 18, 4, 3, 133, 32, 24, 16, 3, 2, 52, 12, 9, 2, 1, 1, 31, 7, 5, 4, 1, 1, 64, 15, 11, 13, 3, 2, 13, 3, 2, 2, 1, 1, 2, 1, 1, 24, 6, 4, 20, 4, 3, 11, 2, 1, 88, 21, 15, 15, 3, 2, 29, 7, 5, 7, 1, 1, 18, 4, 3, 72, 17, 12, 13, 3, 2, 20, 4, 3, 9, 2, 1, 10, 2, 1, 12, 3, 2, 7, 1, 1, 38, 9, 6, 18, 4, 3, 76, 18, 13, 22, 5, 3, 32, 8, 5, 16, 3, 2, 7, 1, 1, 9, 2, 1, 6, 1, 1, 1, 1, 1, 31, 7, 5, 19, 4, 3, 7, 1, 1, 2, 1, 1, 12, 2, 2, 28, 6, 5, 10, 2, 1, 13, 3, 2, 16, 4, 2, 14, 3, 2, 14, 3, 2, 12, 3, 2, 11, 2, 2, 31, 7, 5, 35, 8, 6, 10, 2, 1, 38, 9, 6, 17, 4, 3, 15, 3, 2, 65, 15, 11, 20, 5, 3, 27, 6, 4, 6, 1, 1, 11, 2, 1, 16, 4, 2, 24, 6, 4, 34, 8, 6, 47, 11, 8, 31, 7, 5, 24, 5, 4, 17, 4, 3, 13, 3, 2, 39, 9, 7, 16, 4, 3, 4, 1, 1, 7, 1, 1, 7, 1, 1, 43, 10, 7, 153, 37, 27, 42, 10, 7, 32, 7, 5, 23, 5, 4, 12, 3, 2, 31, 7, 5, 20, 4, 3, 10, 2, 1, 2, 1, 1, 6, 1, 1, 101, 24, 18, 10, 2, 1, 33, 8, 5, 16, 4, 3, 22, 5, 4, 8, 2, 1, 27, 6, 4, 2, 1, 1, 26, 6, 4, 52, 12, 9, 58, 14, 10, 23, 5, 4, 3, 1, 1, 48, 11, 8, 14, 3, 2, 20, 5, 3, 29, 7, 5, 22, 5, 4, 45, 11, 8, 28, 7, 5, 77, 18, 13, 7, 1, 1, 25, 6, 4, 24, 5, 4, 30, 7, 5, 6, 1, 1, 2, 1, 1, 1, 1, 1, 16, 3, 2, 22, 5, 4, 1, 1, 1, 19, 4, 3, 22, 5, 4, 1, 1, 1, 57, 14, 10, 2, 1, 1, 5, 1, 1, 11, 2, 2, 25, 6, 4, 10, 2, 1, 20, 5, 3, 20, 5, 3, 9, 2, 1, 11, 2, 2, 58, 14, 10, 11, 2, 1, 59, 14, 10, 85, 20, 15, 38, 9, 6, 15, 3, 2, 75, 18, 13, 6, 1, 1, 67, 16, 12, 39, 9, 7, 24, 5, 4, 50, 12, 8, 11, 2, 1, 3, 1, 1, 1, 1, 1, 12, 3, 2, 14, 3, 2, 33, 8, 6, 4, 1, 1, 13, 3, 2, 16, 4, 2, 53, 13, 9, 8, 1, 1, 19, 4, 3, 2, 1, 1, 6, 1, 1, 6, 1, 1, 12, 2, 2, 35, 8, 6, 19, 4, 3, 11, 2, 2, 13, 3, 2, 71, 17, 12, 20, 5, 3, 6, 1, 1, 4, 1, 1, 42, 10, 7, 2, 1, 1, 7, 1, 1, 65, 16, 11, 4, 1, 1, 24, 5, 4, 17, 4, 3, 2, 1, 1, 31, 7, 5, 45, 11, 8, 57, 14, 10, 6, 1, 1, 12, 3, 2, 2, 1, 1, 59, 14, 10, 2, 1, 1, 61, 14, 11, 1, 1, 1, 12, 3, 2, 12, 3, 2, 18, 4, 3, 16, 4, 2, 42, 10, 7, 37, 9, 6, 30, 7, 5, 60, 14, 10, 1, 1, 1, 22, 5, 4, 15, 3, 2, 87, 21, 15, 3, 1, 1, 6, 1, 1, 16, 4, 2, 2, 1, 1, 11, 2, 2, 9, 2, 1, 38, 9, 6, 20, 4, 3, 1, 1, 1, 27, 6, 4, 38, 9, 6, 72, 17, 13, 43, 10, 7, 29, 7, 5, 5, 1, 1, 64, 15, 11, 3, 1, 1, 57, 14, 10, 18, 4, 3, 40, 9, 7, 12, 3, 2, 41, 10, 7, 22, 5, 4, 13, 3, 2, 12, 3, 2, 66, 16, 11, 51, 12, 9, 19, 4, 3, 8, 2, 1, 20, 4, 3, 29, 7, 5, 25, 6, 4, 24, 5, 4, 37, 9, 6, 7, 1, 1, 44, 10, 8, 9, 2, 1, 61, 15, 11, 10, 2, 1, 7, 1, 1, 38, 9, 6, 3, 1, 1, 36, 8, 6, 19, 4, 3, 27, 6, 4, 14, 3, 2, 12, 3, 2, 62, 15, 11, 27, 6, 4, 8, 2, 1, 4, 1, 1, 1, 1, 1, 25, 6, 4, 13, 3, 2, 31, 7, 5, 8, 2, 1, 42, 10, 7, 66, 16, 11, 30, 7, 5, 15, 3, 2, 20, 5, 3, 5, 1, 1, 4, 1, 1, 1, 1, 1, 30, 7, 5, 8, 2, 1, 98, 24, 17, 35, 8, 6, 29, 7, 5, 28, 6, 5, 23, 5, 4, 3, 1, 1, 85, 20, 15, 19, 4, 3, 29, 7, 5, 24, 5, 4, 18, 4, 3, 8, 2, 1, 24, 5, 4, 31, 7, 5, 12, 2, 2, 31, 7, 5, 3, 1, 1, 31, 7, 5, 39, 9, 7, 106, 26, 19, 34, 8, 6, 75, 18, 13, 7, 1, 1, 48, 11, 8, 30, 7, 5, 56, 13, 10, 2, 1, 1, 20, 5, 3, 5, 1, 1, 6, 1, 1, 7, 1, 1, 2, 1, 1, 3, 1, 1, 34, 8, 6, 22, 5, 4, 53, 13, 9, 1, 1, 1, 20, 4, 3, 42, 10, 7, 24, 5, 4, 6, 1, 1, 1, 1, 1, 34, 8, 6, 42, 10, 7, 1, 1, 1, 15, 3, 2, 9, 2, 1, 16, 4, 3, 37, 9, 6, 21, 5, 3, 12, 3, 2, 31, 7, 5, 23, 5, 4, 53, 13, 9, 4, 1, 1, 15, 3, 2, 25, 6, 4, 10, 2, 1, 22, 5, 4, 1, 1, 1, 2, 1, 1, 16, 4, 2, 20, 4, 3, 106, 26, 19, 28, 6, 5, 30, 7, 5, 24, 6, 4, 133, 32, 24, 50, 12, 9, 94, 23, 16, 41, 10, 7, 22, 5, 3, 39, 9, 7, 22, 5, 4, 12, 3, 2, 7, 1, 1, 24, 5, 4, 2, 1, 1, 37, 9, 6, 11, 2, 2, 114, 28, 20, 11, 2, 2, 48, 11, 8, 32, 8, 5, 5, 1, 1, 1, 1, 1, 10, 2, 1, 39, 9, 7, 25, 6, 4, 16, 4, 2, 15, 3, 2, 21, 5, 3, 1, 1, 1, 57, 14, 10, 13, 3, 2, 6, 1, 1, 3, 1, 1, 149, 36, 26, 13, 3, 2, 24, 6, 4, 5, 1, 1, 1, 1, 1, 9, 2, 1, 11, 2, 2, 32, 8, 5, 1, 1, 1, 68, 16, 12, 25, 6, 4, 3, 1, 1, 61, 15, 11, 2, 1, 1, 33, 8, 6, 45, 11, 8, 30, 7, 5, 5, 1, 1, 10, 2, 1, 2, 1, 1, 19, 4, 3, 16, 3, 2, 35, 8, 6, 14, 3, 2, 23, 5, 4, 6, 1, 1, 6, 1, 1, 2, 1, 1, 4, 1, 1, 1, 1, 1, 12, 3, 2, 121, 29, 21, 48, 11, 8, 72, 17, 12, 14, 3, 2, 64, 15, 11, 25, 6, 4, 4, 1, 1, 12, 3, 2, 11, 2, 1, 2, 1, 1, 3, 1, 1, 28, 6, 5, 18, 4, 3, 6, 1, 1, 1, 1, 1, 15, 3, 2, 48, 11, 8, 86, 21, 15, 19, 4, 3, 51, 12, 9, 49, 12, 8, 7, 1, 1, 86, 21, 15, 21, 5, 3, 24, 6, 4, 86, 21, 15, 9, 2, 1, 91, 22, 16, 27, 6, 4, 46, 11, 8, 43, 10, 7, 7, 1, 1, 5, 1, 1, 9, 2, 1, 16, 3, 2, 4, 1, 1, 5, 1, 1, 11, 2, 2, 57, 13, 10, 2, 1, 1, 29, 7, 5, 26, 6, 4, 40, 9, 7, 1, 1, 1, 12, 2, 2, 39, 9, 7, 23, 5, 4, 14, 3, 2, 67, 16, 12, 1, 1, 1, 4, 1, 1, 2, 1, 1, 32, 7, 5, 31, 7, 5, 51, 12, 9, 54, 13, 9, 34, 8, 6, 3, 1, 1, 18, 4, 3, 14, 3, 2, 5, 1, 1, 18, 4, 3, 34, 8, 6, 16, 3, 2, 67, 16, 12, 60, 14, 10, 25, 6, 4, 15, 3, 2, 5, 1, 1, 32, 8, 5, 38, 9, 6, 18, 4, 3, 35, 8, 6, 44, 10, 7, 36, 8, 6, 52, 12, 9, 18, 4, 3, 12, 3, 2, 103, 25, 18, 63, 15, 11, 59, 14, 10, 48, 11, 8, 2, 1, 1, 13, 3, 2, 6, 1, 1, 1, 1, 1, 18, 4, 3, 33, 8, 6, 9, 2, 1, 14, 3, 2, 9, 2, 1, 16, 4, 3, 7, 1, 1, 9, 2, 1, 31, 7, 5, 71, 17, 12, 2, 1, 1, 29, 7, 5, 20, 4, 3, 4, 1, 1, 41, 10, 7, 26, 6, 4, 17, 4, 3, 21, 5, 3, 3, 1, 1, 44, 10, 7, 29, 7, 5, 64, 15, 11, 11, 2, 1, 22, 5, 4, 2, 1, 1, 5, 1, 1, 7, 1, 1, 8, 2, 1, 10, 2, 1, 10, 2, 1, 5, 1, 1, 10, 2, 1, 64, 15, 11, 26, 6, 4, 32, 7, 5, 23, 5, 4, 6, 1, 1, 65, 15, 11, 52, 12, 9, 27, 6, 4, 139, 34, 25, 23, 5, 4, 1, 1, 1, 12, 3, 2, 31, 7, 5, 26, 6, 4, 8, 2, 1, 6, 1, 1, 7, 1, 1, 62, 15, 11, 16, 4, 2, 44, 10, 8, 6, 1, 1, 16, 4, 3, 12, 3, 2, 25, 6, 4, 11, 2, 2, 100, 24, 18, 16, 4, 3, 15, 3, 2, 8, 2, 1, 52, 12, 9, 22, 5, 4, 1, 1, 1, 30, 7, 5, 12, 3, 2, 15, 3, 2, 14, 3, 2, 13, 3, 2, 54, 13, 9, 42, 10, 7, 2, 1, 1, 1, 1, 1, 25, 6, 4, 8, 2, 1, 24, 5, 4, 45, 11, 8, 32, 7, 5, 11, 2, 2, 26, 6, 4, 46, 11, 8, 19, 4, 3, 8, 1, 1, 79, 19, 14, 5, 1, 1, 5, 1, 1, 10, 2, 1, 1, 1, 1, 29, 7, 5, 5, 1, 1, 45, 11, 8, 3, 1, 1, 70, 17, 12, 27, 6, 5, 14, 3, 2, 3, 1, 1, 19, 4, 3, 15, 3, 2, 49, 12, 8, 15, 3, 2, 1, 1, 1, 32, 7, 5, 23, 5, 4, 20, 4, 3, 5, 1, 1, 17, 4, 3, 43, 10, 7, 25, 6, 4, 35, 8, 6, 29, 7, 5, 8, 2, 1, 33, 8, 5, 108, 26, 19, 18, 4, 3, 10, 2, 1, 1, 1, 1, 1, 1, 1, 2, 1, 1, 12, 3, 2, 22, 5, 3, 20, 5, 3, 50, 12, 9, 10, 2, 1, 27, 6, 5, 13, 3, 2, 11, 2, 1, 4, 1, 1, 60, 14, 10, 21, 5, 3, 2, 1, 1, 82, 20, 14, 41, 10, 7, 20, 4, 3, 20, 5, 3, 84, 20, 15, 6, 1, 1, 47, 11, 8, 86, 21, 15, 16, 4, 3, 88, 21, 16, 6, 1, 1, 6, 1, 1, 8, 1, 1, 52, 12, 9, 2, 1, 1, 20, 5, 3, 1, 1, 1, 3, 1, 1, 10, 2, 1, 92, 22, 16, 59, 14, 10, 30, 7, 5, 86, 21, 15, 60, 14, 10]);
energy = array3d(JOBS,MACHINES,1..SPEED,[77, 94, 96, 77, 94, 96, 85, 97, 98, 99, 99, 99, 99, 99, 99, 96, 99, 99, 67, 90, 93, 96, 99, 99, 97, 99, 99, 89, 98, 98, 84, 96, 97, 74, 93, 95, 66, 90, 93, 92, 99, 99, 53, 86, 89, 99, 99, 99, 88, 98, 98, 95, 99, 99, 90, 98, 99, 86, 97, 98, 84, 96, 97, 87, 97, 98, 94, 99, 99, 94, 99, 99, 94, 99, 99, 71, 92, 94, 87, 97, 98, 80, 95, 96, 84, 96, 97, 86, 97, 98, 71, 92, 94, 81, 95, 97, 91, 98, 99, 40, 80, 85, 94, 99, 99, 97, 99, 99, 78, 94, 96, 84, 96, 97, 95, 99, 99, 98, 99, 99, 81, 96, 97, 92, 98, 99, 98, 99, 99, 84, 96, 97, 77, 94, 96, 99, 99, 99, 84, 96, 97, 98, 99, 99, 67, 91, 93, 69, 92, 94, 93, 99, 99, 98, 99, 99, 52, 86, 89, 83, 96, 97, 97, 99, 99, 97, 99, 99, 62, 89, 92, 81, 95, 97, 93, 99, 99, 80, 95, 97, 91, 98, 99, 67, 91, 93, 84, 96, 97, 42, 81, 86, 82, 96, 97, 54, 86, 90, 93, 99, 99, 82, 96, 97, 83, 96, 97, 65, 90, 93, 99, 99, 99, 63, 89, 92, 65, 90, 93, 87, 97, 98, 99, 99, 99, 69, 91, 94, 74, 93, 95, 52, 86, 89, 81, 95, 97, 41, 81, 86, 91, 98, 99, 90, 98, 99, 71, 92, 94, 73, 93, 95, 71, 92, 94, 55, 86, 90, 72, 93, 95, 74, 93, 95, 62, 89, 92, 77, 94, 96, 91, 98, 99, 63, 89, 92, 93, 99, 99, 73, 93, 95, 82, 96, 97, 88, 97, 98, 95, 99, 99, 57, 87, 90, 98, 99, 99, 65, 90, 93, 74, 93, 95, 85, 97, 98, 75, 94, 95, 92, 98, 99, 60, 88, 91, 95, 99, 99, 80, 95, 96, 85, 97, 98, 75, 93, 95, 85, 96, 97, 45, 82, 86, 61, 88, 92, 55, 86, 90, 99, 99, 99, 96, 99, 99, 85, 96, 97, 71, 92, 94, 89, 98, 98, 81, 95, 97, 99, 99, 99, 77, 94, 96, 74, 93, 95, 87, 97, 98, 97, 99, 99, 87, 97, 98, 71, 92, 94, 80, 95, 96, 57, 87, 90, 80, 95, 96, 95, 99, 99, 79, 95, 96, 99, 99, 99, 70, 92, 94, 95, 99, 99, 54, 86, 90, 85, 96, 98, 86, 97, 98, 97, 99, 99, 65, 90, 93, 52, 86, 89, 74, 93, 95, 75, 94, 95, 73, 93, 95, 70, 92, 94, 72, 93, 95, 97, 99, 99, 75, 94, 95, 53, 86, 89, 99, 99, 99, 95, 99, 99, 69, 91, 94, 99, 99, 99, 92, 98, 99, 60, 88, 91, 89, 98, 98, 55, 86, 90, 92, 98, 99, 88, 97, 98, 98, 99, 99, 65, 90, 93, 49, 84, 88, 95, 99, 99, 91, 98, 99, 74, 93, 95, 98, 99, 99, 99, 99, 99, 90, 98, 99, 88, 97, 98, 81, 95, 97, 81, 95, 97, 90, 98, 99, 86, 97, 98, 93, 99, 99, 95, 99, 99, 68, 91, 94, 97, 99, 99, 86, 97, 98, 97, 99, 99, 65, 90, 93, 62, 89, 92, 97, 99, 99, 71, 92, 95, 51, 85, 89, 88, 97, 98, 68, 91, 94, 51, 85, 89, 99, 99, 99, 92, 98, 99, 99, 99, 99, 95, 99, 99, 99, 99, 99, 99, 99, 99, 76, 94, 96, 92, 98, 99, 61, 89, 92, 90, 98, 99, 52, 85, 89, 97, 99, 99, 81, 95, 97, 91, 98, 99, 65, 90, 93, 90, 98, 99, 97, 99, 99, 86, 97, 98, 93, 99, 99, 70, 92, 94, 71, 92, 94, 99, 99, 99, 99, 99, 99, 52, 86, 89, 90, 98, 99, 91, 98, 99, 92, 98, 99, 93, 99, 99, 68, 91, 94, 93, 99, 99, 72, 92, 95, 75, 93, 95, 81, 95, 97, 74, 93, 95, 96, 99, 99, 85, 97, 98, 84, 96, 97, 99, 99, 99, 94, 99, 99, 49, 84, 88, 76, 94, 95, 37, 78, 84, 89, 98, 98, 69, 91, 94, 79, 95, 96, 79, 95, 96, 97, 99, 99, 94, 99, 99, 99, 99, 99, 83, 96, 97, 90, 98, 99, 95, 99, 99, 88, 98, 98, 82, 96, 97, 72, 93, 95, 79, 95, 96, 77, 94, 96, 79, 95, 96, 88, 98, 98, 90, 98, 99, 81, 95, 97, 70, 92, 94, 52, 86, 89, 63, 89, 92, 81, 95, 97, 63, 89, 92, 99, 99, 99, 66, 90, 93, 95, 99, 99, 74, 93, 95, 63, 89, 92, 91, 98, 99, 87, 97, 98, 33, 77, 82, 93, 99, 99, 69, 92, 94, 87, 97, 98, 91, 98, 99, 68, 91, 94, 86, 97, 98, 72, 93, 95, 94, 99, 99, 64, 89, 92, 72, 93, 95, 84, 96, 97, 67, 91, 93, 52, 86, 89, 67, 91, 93, 91, 98, 99, 72, 92, 95, 78, 94, 96, 62, 89, 92, 87, 97, 98, 86, 97, 98, 98, 99, 99, 94, 99, 99, 82, 96, 97, 82, 96, 97, 72, 93, 95, 92, 98, 99, 97, 99, 99, 95, 99, 99, 86, 97, 98, 95, 99, 99, 97, 99, 99, 71, 92, 94, 53, 86, 89, 99, 99, 99, 99, 99, 99, 92, 98, 99, 80, 95, 96, 48, 84, 88, 80, 95, 96, 74, 93, 95, 76, 94, 96, 47, 83, 87, 60, 88, 91, 89, 98, 98, 64, 90, 92, 93, 99, 99, 33, 76, 82, 87, 97, 98, 81, 95, 97, 76, 94, 96, 91, 98, 99, 59, 88, 91, 30, 74, 81, 81, 95, 97, 94, 99, 99, 92, 98, 99, 64, 90, 93, 81, 95, 97, 81, 96, 97, 96, 99, 99, 71, 92, 94, 96, 99, 99, 95, 99, 99, 80, 95, 96, 78, 94, 96, 95, 99, 99, 49, 84, 88, 73, 93, 95, 66, 90, 93, 67, 91, 93, 82, 96, 97, 77, 94, 96, 99, 99, 99, 80, 95, 96, 78, 95, 96, 75, 94, 95, 95, 99, 99, 90, 98, 99, 39, 79, 85, 92, 98, 99, 73, 93, 95, 93, 99, 99, 80, 95, 97, 58, 87, 91, 65, 90, 93, 99, 99, 99, 86, 97, 98, 88, 97, 98, 55, 86, 90, 99, 99, 99, 86, 97, 98, 35, 77, 83, 99, 99, 99, 75, 93, 95, 71, 92, 94, 98, 99, 99, 93, 99, 99, 85, 96, 97, 95, 99, 99, 50, 84, 88, 72, 93, 95, 98, 99, 99, 58, 87, 91, 92, 98, 99, 87, 97, 98, 77, 94, 96, 84, 96, 97, 82, 96, 97, 48, 84, 87, 88, 97, 98, 82, 96, 97, 95, 99, 99, 99, 99, 99, 82, 96, 97, 98, 99, 99, 74, 93, 95, 94, 99, 99, 83, 96, 97, 65, 90, 93, 74, 93, 95, 86, 97, 98, 74, 93, 95, 90, 98, 99, 53, 86, 89, 91, 98, 99, 78, 94, 96, 86, 97, 98, 99, 99, 99, 87, 97, 98, 79, 95, 96, 85, 96, 98, 49, 84, 88, 97, 99, 99, 69, 92, 94, 77, 94, 96, 89, 98, 98, 81, 95, 97, 97, 99, 99, 79, 95, 96, 97, 99, 99, 79, 95, 96, 63, 89, 92, 87, 97, 98, 99, 99, 99, 94, 99, 99, 81, 95, 97, 78, 94, 96, 46, 83, 87, 55, 86, 90, 92, 98, 99, 97, 99, 99, 64, 90, 92, 82, 96, 97, 41, 81, 86, 99, 99, 99, 89, 98, 98, 70, 92, 94, 81, 95, 97, 65, 90, 93, 70, 92, 94, 89, 98, 98, 88, 97, 98, 94, 99, 99, 65, 90, 93, 86, 97, 98, 61, 89, 92, 46, 83, 87, 90, 98, 99, 89, 98, 98, 85, 96, 97, 70, 92, 94, 99, 99, 99, 86, 97, 98, 66, 90, 93, 96, 99, 99, 69, 92, 94, 89, 98, 99, 99, 99, 99, 71, 92, 94, 60, 88, 91, 37, 79, 84, 96, 99, 99, 79, 95, 96, 92, 98, 99, 57, 87, 90, 98, 99, 99, 95, 99, 99, 98, 99, 99, 91, 98, 99, 45, 82, 86, 89, 98, 98, 81, 95, 97, 87, 97, 98, 36, 78, 83, 72, 93, 95, 62, 89, 92, 97, 99, 99, 49, 84, 88, 92, 98, 99, 74, 93, 95, 91, 98, 99, 76, 94, 96, 99, 99, 99, 88, 97, 98, 45, 82, 86, 97, 99, 99, 89, 98, 98, 50, 84, 88, 99, 99, 99, 62, 89, 92, 62, 89, 92, 67, 91, 93, 57, 87, 91, 88, 97, 98, 91, 98, 99, 82, 96, 97, 92, 98, 99, 93, 99, 99, 99, 99, 99, 89, 98, 98, 96, 99, 99, 69, 91, 94, 74, 93, 95, 60, 88, 91, 85, 96, 97, 93, 99, 99, 69, 91, 94, 95, 99, 99, 88, 97, 98, 77, 94, 96, 77, 94, 96, 84, 96, 97, 77, 94, 96, 94, 99, 99, 85, 96, 97, 91, 98, 99, 96, 99, 99, 99, 99, 99, 95, 99, 99, 87, 97, 98, 75, 94, 95, 93, 99, 99, 58, 87, 91, 99, 99, 99, 65, 90, 93, 85, 96, 98, 91, 98, 99, 97, 99, 99, 79, 95, 96, 81, 95, 97, 74, 93, 95, 61, 88, 92, 86, 97, 98, 46, 83, 87, 33, 77, 82, 97, 99, 99, 81, 95, 97, 79, 95, 96, 99, 99, 99, 96, 99, 99, 70, 92, 94, 88, 98, 98, 65, 90, 93, 28, 73, 79, 80, 95, 96, 99, 99, 99, 96, 99, 99, 75, 94, 95, 68, 91, 94, 99, 99, 99, 77, 94, 96, 82, 96, 97, 97, 99, 99, 98, 99, 99, 45, 82, 86, 44, 81, 86, 91, 98, 99, 88, 97, 98, 97, 99, 99, 93, 99, 99, 90, 98, 99, 74, 93, 95, 86, 97, 98, 77, 94, 96, 76, 94, 96, 82, 96, 97, 81, 96, 97, 99, 99, 99, 77, 94, 96, 74, 93, 95, 32, 76, 81, 85, 97, 98, 74, 93, 95, 86, 97, 98, 94, 99, 99, 97, 99, 99, 98, 99, 99, 94, 99, 99, 87, 97, 98, 99, 99, 99, 99, 99, 99, 68, 91, 94, 56, 86, 90, 91, 98, 99, 87, 97, 98, 51, 85, 88, 87, 97, 98, 84, 96, 97, 99, 99, 99, 83, 96, 97, 72, 93, 95, 92, 98, 99, 85, 97, 98, 99, 99, 99, 79, 95, 96, 73, 93, 95, 99, 99, 99, 85, 96, 97, 98, 99, 99, 36, 78, 83, 86, 97, 98, 84, 96, 97, 84, 96, 97, 50, 84, 88, 77, 94, 96, 71, 92, 94, 79, 95, 96, 82, 96, 97, 64, 90, 93, 63, 89, 92, 79, 95, 96, 83, 96, 97, 87, 97, 98, 83, 96, 97, 99, 99, 99, 92, 99, 99, 66, 90, 93, 50, 84, 88, 99, 99, 99, 99, 99, 99, 50, 85, 88, 61, 89, 92, 84, 96, 97, 48, 83, 87, 93, 99, 99, 91, 98, 99, 48, 83, 87, 90, 98, 99, 37, 78, 84, 97, 99, 99, 78, 95, 96, 78, 95, 96, 96, 99, 99, 95, 99, 99, 87, 97, 98, 84, 96, 97, 90, 98, 99, 75, 93, 95, 46, 83, 87, 61, 88, 92, 96, 99, 99, 83, 96, 97, 26, 72, 78, 85, 97, 98, 59, 88, 91, 98, 99, 99, 73, 93, 95, 96, 99, 99, 52, 86, 89, 87, 97, 98, 87, 97, 98, 98, 99, 99, 98, 99, 99, 78, 94, 96, 81, 96, 97, 89, 98, 99, 41, 81, 86, 86, 97, 98, 74, 93, 95, 93, 99, 99, 83, 96, 97, 48, 84, 88, 87, 97, 98, 81, 96, 97, 91, 98, 99, 90, 98, 99, 88, 97, 98, 93, 99, 99, 68, 91, 94, 83, 96, 97, 46, 83, 87, 80, 95, 97, 72, 92, 95, 85, 97, 98, 93, 99, 99, 91, 98, 99, 94, 99, 99, 99, 99, 99, 73, 93, 95, 82, 96, 97, 93, 99, 99, 98, 99, 99, 88, 98, 98, 75, 94, 95, 90, 98, 99, 87, 97, 98, 85, 96, 98, 86, 97, 98, 86, 97, 98, 88, 97, 98, 89, 98, 98, 73, 93, 95, 70, 92, 94, 90, 98, 99, 68, 91, 94, 84, 96, 97, 86, 97, 98, 52, 86, 89, 81, 95, 97, 76, 94, 96, 94, 99, 99, 89, 98, 99, 85, 96, 98, 78, 94, 96, 71, 92, 94, 62, 89, 92, 73, 93, 95, 78, 95, 96, 84, 96, 97, 87, 97, 98, 67, 91, 93, 85, 96, 97, 96, 99, 99, 93, 99, 99, 93, 99, 99, 65, 90, 93, 21, 69, 76, 65, 90, 93, 72, 93, 95, 79, 95, 96, 88, 97, 98, 73, 93, 95, 81, 96, 97, 90, 98, 99, 98, 99, 99, 94, 99, 99, 36, 78, 83, 90, 98, 99, 71, 92, 95, 85, 96, 97, 80, 95, 96, 92, 98, 99, 76, 94, 96, 98, 99, 99, 77, 94, 96, 59, 88, 91, 55, 86, 90, 79, 95, 96, 97, 99, 99, 61, 89, 92, 86, 97, 98, 81, 95, 97, 74, 93, 95, 80, 95, 96, 63, 89, 92, 75, 93, 95, 46, 83, 87, 93, 99, 99, 77, 94, 96, 78, 95, 96, 74, 93, 95, 94, 99, 99, 98, 99, 99, 99, 99, 99, 85, 97, 98, 80, 95, 96, 99, 99, 99, 82, 96, 97, 80, 95, 96, 99, 99, 99, 56, 86, 90, 98, 99, 99, 95, 99, 99, 89, 98, 98, 77, 94, 96, 90, 98, 99, 81, 95, 97, 81, 95, 97, 91, 98, 99, 89, 98, 98, 55, 86, 90, 89, 98, 99, 55, 86, 90, 42, 81, 86, 68, 91, 94, 86, 97, 98, 47, 83, 87, 94, 99, 99, 51, 85, 88, 67, 91, 93, 78, 95, 96, 60, 88, 92, 89, 98, 99, 97, 99, 99, 99, 99, 99, 88, 97, 98, 86, 97, 98, 71, 92, 94, 96, 99, 99, 87, 97, 98, 85, 96, 98, 58, 87, 91, 92, 99, 99, 82, 96, 97, 98, 99, 99, 94, 99, 99, 94, 99, 99, 88, 98, 98, 70, 92, 94, 82, 96, 97, 89, 98, 98, 87, 97, 98, 49, 84, 88, 81, 95, 97, 94, 99, 99, 96, 99, 99, 65, 90, 93, 98, 99, 99, 93, 99, 99, 52, 85, 89, 96, 99, 99, 78, 95, 96, 84, 96, 97, 98, 99, 99, 73, 93, 95, 63, 89, 92, 56, 86, 90, 94, 99, 99, 88, 97, 98, 98, 99, 99, 55, 86, 90, 98, 99, 99, 54, 86, 89, 99, 99, 99, 88, 97, 98, 88, 97, 98, 83, 96, 97, 85, 96, 98, 65, 90, 93, 69, 91, 94, 74, 93, 95, 54, 86, 90, 99, 99, 99, 80, 95, 96, 86, 97, 98, 41, 81, 86, 97, 99, 99, 94, 99, 99, 85, 96, 98, 98, 99, 99, 89, 98, 98, 91, 98, 99, 68, 91, 94, 81, 96, 97, 99, 99, 99, 76, 94, 96, 68, 91, 94, 48, 84, 87, 65, 90, 93, 74, 93, 95, 95, 99, 99, 52, 86, 89, 97, 99, 99, 56, 86, 90, 83, 96, 97, 67, 91, 93, 88, 97, 98, 66, 90, 93, 80, 95, 96, 87, 97, 98, 88, 97, 98, 51, 85, 89, 60, 88, 91, 82, 96, 97, 92, 98, 99, 81, 96, 97, 74, 93, 95, 77, 94, 96, 78, 95, 96, 69, 91, 94, 93, 99, 99, 64, 90, 92, 91, 98, 99, 54, 86, 89, 90, 98, 99, 93, 99, 99, 68, 91, 94, 97, 99, 99, 69, 92, 94, 82, 96, 97, 76, 94, 96, 86, 97, 98, 88, 97, 98, 53, 86, 89, 76, 94, 96, 92, 98, 99, 96, 99, 99, 99, 99, 99, 77, 94, 96, 87, 97, 98, 73, 93, 95, 92, 98, 99, 65, 90, 93, 51, 85, 89, 74, 93, 95, 86, 97, 98, 81, 95, 97, 95, 99, 99, 96, 99, 99, 99, 99, 99, 74, 93, 95, 92, 98, 99, 37, 78, 84, 70, 92, 94, 74, 93, 95, 75, 94, 95, 79, 95, 96, 97, 99, 99, 42, 81, 86, 82, 96, 97, 74, 93, 95, 78, 95, 96, 83, 96, 97, 92, 98, 99, 78, 95, 96, 73, 93, 95, 88, 98, 98, 73, 93, 95, 97, 99, 99, 73, 93, 95, 67, 91, 93, 34, 77, 82, 71, 92, 94, 47, 83, 87, 93, 99, 99, 61, 89, 92, 74, 93, 95, 57, 87, 90, 98, 99, 99, 81, 95, 97, 95, 99, 99, 94, 99, 99, 93, 99, 99, 98, 99, 99, 97, 99, 99, 71, 92, 94, 80, 95, 96, 58, 87, 91, 99, 99, 99, 81, 96, 97, 65, 90, 93, 78, 95, 96, 94, 99, 99, 99, 99, 99, 71, 92, 94, 65, 90, 93, 99, 99, 99, 86, 97, 98, 91, 98, 99, 85, 96, 97, 69, 91, 94, 81, 95, 97, 88, 97, 98, 73, 93, 95, 79, 95, 96, 58, 87, 91, 96, 99, 99, 86, 97, 98, 77, 94, 96, 90, 98, 99, 80, 95, 96, 99, 99, 99, 98, 99, 99, 85, 96, 98, 81, 96, 97, 34, 77, 82, 75, 94, 95, 74, 93, 95, 78, 94, 96, 26, 72, 78, 60, 88, 91, 39, 79, 85, 66, 90, 93, 80, 95, 97, 67, 91, 93, 80, 95, 96, 88, 97, 98, 93, 99, 99, 78, 95, 96, 98, 99, 99, 69, 91, 94, 89, 98, 98, 31, 75, 81, 89, 98, 98, 61, 89, 92, 72, 92, 95, 95, 99, 99, 99, 99, 99, 90, 98, 99, 67, 91, 93, 77, 94, 96, 85, 96, 98, 86, 97, 98, 81, 95, 97, 99, 99, 99, 56, 86, 90, 87, 97, 98, 94, 99, 99, 97, 99, 99, 22, 69, 77, 87, 97, 98, 78, 94, 96, 95, 99, 99, 99, 99, 99, 91, 98, 99, 89, 98, 98, 72, 92, 95, 99, 99, 99, 50, 85, 88, 77, 94, 96, 97, 99, 99, 54, 86, 89, 98, 99, 99, 71, 92, 94, 63, 89, 92, 74, 93, 95, 95, 99, 99, 90, 98, 99, 98, 99, 99, 82, 96, 97, 85, 97, 98, 70, 92, 94, 86, 97, 98, 79, 95, 96, 94, 99, 99, 94, 99, 99, 98, 99, 99, 96, 99, 99, 99, 99, 99, 88, 97, 98, 29, 74, 81, 61, 89, 92, 48, 84, 88, 86, 97, 98, 52, 86, 89, 77, 94, 96, 96, 99, 99, 88, 97, 98, 89, 98, 99, 98, 99, 99, 97, 99, 99, 75, 94, 95, 83, 96, 97, 94, 99, 99, 99, 99, 99, 86, 97, 98, 61, 89, 92, 42, 81, 86, 82, 96, 97, 60, 88, 91, 61, 88, 92, 93, 99, 99, 42, 81, 86, 81, 95, 97, 78, 94, 96, 42, 81, 86, 91, 98, 99, 40, 80, 85, 76, 94, 96, 63, 89, 92, 65, 90, 93, 93, 99, 99, 95, 99, 99, 91, 98, 99, 85, 97, 98, 96, 99, 99, 95, 99, 99, 89, 98, 98, 56, 87, 90, 98, 99, 99, 74, 93, 95, 77, 94, 96, 67, 91, 93, 99, 99, 99, 88, 98, 98, 67, 91, 93, 79, 95, 96, 86, 97, 98, 51, 85, 88, 99, 99, 99, 96, 99, 99, 98, 99, 99, 72, 93, 95, 73, 93, 95, 60, 88, 91, 58, 87, 91, 71, 92, 94, 97, 99, 99, 83, 96, 97, 86, 97, 98, 95, 99, 99, 83, 96, 97, 71, 92, 94, 85, 97, 98, 51, 85, 88, 54, 86, 90, 77, 94, 96, 86, 97, 98, 95, 99, 99, 72, 92, 95, 68, 91, 94, 83, 96, 97, 70, 92, 94, 64, 90, 93, 69, 92, 94, 59, 88, 91, 83, 96, 97, 88, 97, 98, 35, 77, 83, 53, 86, 89, 55, 86, 90, 61, 89, 92, 98, 99, 99, 87, 97, 98, 94, 99, 99, 99, 99, 99, 83, 96, 97, 71, 92, 94, 91, 98, 99, 86, 97, 98, 91, 98, 99, 85, 96, 97, 93, 99, 99, 91, 98, 99, 73, 93, 95, 49, 84, 88, 98, 99, 99, 74, 93, 95, 81, 96, 97, 96, 99, 99, 66, 90, 93, 77, 94, 96, 84, 96, 97, 81, 95, 97, 97, 99, 99, 64, 90, 93, 74, 93, 95, 52, 86, 89, 89, 98, 99, 80, 95, 96, 98, 99, 99, 95, 99, 99, 93, 99, 99, 92, 98, 99, 90, 98, 99, 90, 98, 99, 95, 99, 99, 90, 98, 99, 52, 86, 89, 77, 94, 96, 72, 93, 95, 79, 95, 96, 94, 99, 99, 52, 86, 89, 59, 88, 91, 76, 94, 96, 24, 71, 77, 79, 95, 96, 99, 99, 99, 88, 97, 98, 73, 93, 95, 77, 94, 96, 92, 98, 99, 94, 99, 99, 93, 99, 99, 53, 86, 89, 85, 96, 98, 64, 90, 92, 94, 99, 99, 85, 96, 97, 88, 97, 98, 77, 94, 96, 89, 98, 98, 36, 78, 83, 85, 96, 97, 86, 97, 98, 92, 98, 99, 59, 88, 91, 80, 95, 96, 99, 99, 99, 74, 93, 95, 88, 97, 98, 86, 97, 98, 86, 97, 98, 87, 97, 98, 58, 87, 91, 65, 90, 93, 98, 99, 99, 99, 99, 99, 77, 94, 96, 92, 98, 99, 78, 95, 96, 63, 89, 92, 72, 93, 95, 89, 98, 98, 77, 94, 96, 63, 89, 92, 82, 96, 97, 92, 99, 99, 45, 82, 86, 95, 99, 99, 95, 99, 99, 90, 98, 99, 99, 99, 99, 74, 93, 95, 95, 99, 99, 63, 89, 92, 97, 99, 99, 49, 84, 88, 76, 94, 95, 86, 97, 98, 97, 99, 99, 82, 96, 97, 86, 97, 98, 61, 88, 92, 86, 97, 98, 99, 99, 99, 72, 93, 95, 79, 95, 96, 81, 96, 97, 95, 99, 99, 84, 96, 97, 65, 90, 93, 77, 94, 96, 70, 92, 94, 74, 93, 95, 92, 98, 99, 71, 92, 95, 33, 77, 82, 83, 96, 97, 90, 98, 99, 99, 99, 99, 99, 99, 99, 98, 99, 99, 88, 97, 98, 80, 95, 97, 81, 95, 97, 60, 88, 91, 90, 98, 99, 76, 94, 95, 87, 97, 98, 89, 98, 99, 96, 99, 99, 54, 86, 90, 81, 95, 97, 98, 99, 99, 44, 81, 86, 66, 90, 93, 81, 96, 97, 81, 95, 97, 43, 81, 86, 94, 99, 99, 62, 89, 92, 42, 81, 86, 85, 96, 97, 41, 81, 85, 94, 99, 99, 94, 99, 99, 92, 99, 99, 59, 88, 91, 98, 99, 99, 81, 95, 97, 99, 99, 99, 97, 99, 99, 90, 98, 99, 39, 80, 85, 55, 86, 90, 74, 93, 95, 42, 81, 86, 54, 86, 90]);
precedence = array2d(JOBS,MACHINES,[19, 40, 10, 14, 27, 30, 15, 28, 33, 22, 34, 42, 16, 12, 25, 49, 8, 39, 26, 9, 20, 47, 44, 48, 43, 29, 38, 41, 2, 35, 23, 21, 0, 5, 3, 13, 31, 17, 32, 4, 1, 24, 45, 36, 11, 46, 7, 37, 18, 6, 24, 20, 5, 41, 43, 9, 28, 44, 34, 47, 37, 6, 17, 32, 26, 3, 12, 1, 21, 2, 0, 42, 23, 19, 27, 4, 49, 10, 31, 13, 15, 45, 8, 18, 38, 39, 14, 7, 33, 30, 46, 36, 35, 29, 16, 40, 11, 22, 25, 48, 1, 49, 48, 16, 5, 6, 11, 32, 20, 7, 18, 34, 3, 8, 2, 21, 39, 26, 45, 0, 47, 43, 24, 33, 40, 28, 30, 27, 15, 12, 38, 10, 46, 9, 44, 29, 31, 4, 13, 23, 14, 42, 19, 22, 41, 17, 37, 25, 35, 36, 29, 35, 47, 25, 12, 11, 31, 16, 19, 40, 18, 4, 15, 9, 8, 46, 20, 45, 0, 6, 22, 13, 3, 48, 7, 14, 2, 10, 26, 27, 38, 5, 42, 23, 21, 34, 30, 49, 33, 44, 39, 36, 37, 43, 32, 1, 17, 28, 24, 41, 2, 31, 40, 22, 33, 38, 32, 3, 4, 13, 23, 28, 36, 21, 20, 46, 9, 24, 17, 7, 47, 6, 19, 25, 26, 39, 14, 41, 27, 1, 42, 12, 49, 15, 30, 43, 35, 48, 11, 0, 5, 29, 44, 45, 10, 16, 18, 37, 34, 8, 9, 37, 19, 34, 22, 40, 36, 43, 5, 7, 20, 30, 16, 38, 32, 31, 14, 46, 42, 6, 49, 48, 17, 2, 11, 41, 47, 45, 0, 25, 27, 10, 33, 13, 8, 21, 39, 18, 35, 1, 28, 29, 3, 12, 24, 26, 44, 15, 23, 4, 34, 40, 22, 16, 26, 42, 13, 11, 19, 49, 29, 12, 7, 9, 25, 36, 21, 44, 28, 10, 30, 37, 18, 35, 23, 31, 27, 38, 8, 46, 39, 4, 2, 20, 1, 45, 17, 24, 32, 5, 48, 3, 14, 6, 0, 43, 41, 47, 33, 15, 10, 7, 36, 23, 20, 17, 44, 8, 46, 27, 12, 42, 49, 16, 43, 1, 22, 19, 37, 38, 28, 31, 33, 32, 41, 30, 25, 15, 21, 40, 13, 18, 6, 9, 14, 2, 3, 11, 48, 34, 5, 35, 29, 45, 4, 47, 26, 39, 24, 0, 28, 2, 48, 6, 21, 42, 10, 41, 12, 40, 38, 19, 8, 30, 31, 3, 46, 39, 44, 14, 5, 23, 0, 32, 16, 25, 27, 49, 20, 29, 7, 43, 17, 4, 13, 45, 9, 35, 37, 33, 47, 34, 36, 24, 22, 1, 26, 18, 11, 15, 45, 8, 12, 46, 29, 37, 22, 19, 5, 49, 36, 40, 18, 32, 10, 16, 3, 33, 26, 14, 23, 11, 17, 20, 24, 31, 21, 27, 28, 1, 30, 7, 35, 13, 47, 42, 0, 15, 38, 9, 6, 43, 34, 4, 48, 44, 39, 41, 25, 2, 8, 7, 21, 13, 22, 17, 41, 31, 34, 49, 5, 36, 35, 39, 43, 33, 24, 20, 44, 1, 38, 47, 42, 0, 40, 15, 45, 4, 18, 25, 27, 2, 3, 12, 37, 48, 6, 26, 28, 46, 29, 23, 14, 32, 16, 19, 10, 30, 9, 11, 36, 18, 49, 5, 17, 25, 34, 19, 22, 23, 29, 12, 21, 13, 16, 38, 33, 10, 6, 3, 9, 0, 47, 1, 46, 45, 44, 2, 43, 11, 27, 37, 41, 32, 30, 20, 24, 15, 48, 35, 7, 39, 26, 4, 40, 28, 14, 8, 42, 31, 9, 16, 29, 35, 24, 14, 32, 27, 42, 22, 48, 28, 30, 45, 13, 20, 40, 19, 17, 39, 7, 34, 31, 21, 10, 0, 23, 4, 33, 12, 38, 47, 11, 6, 1, 18, 26, 5, 8, 43, 41, 36, 37, 2, 46, 3, 25, 15, 44, 49, 47, 10, 41, 23, 22, 44, 31, 0, 6, 13, 30, 11, 17, 33, 2, 16, 27, 9, 39, 7, 40, 43, 46, 26, 15, 14, 5, 45, 21, 29, 34, 49, 1, 48, 32, 18, 19, 20, 8, 25, 36, 35, 4, 3, 24, 37, 12, 42, 38, 28, 15, 8, 34, 3, 47, 7, 33, 23, 14, 24, 41, 29, 31, 32, 19, 1, 2, 6, 12, 40, 38, 35, 21, 28, 13, 48, 16, 39, 0, 26, 17, 36, 18, 44, 25, 30, 37, 46, 49, 43, 11, 5, 45, 20, 22, 10, 9, 4, 27, 42, 15, 4, 32, 14, 0, 7, 25, 26, 17, 36, 22, 24, 6, 5, 31, 34, 41, 2, 43, 29, 42, 10, 3, 19, 23, 8, 47, 9, 39, 38, 18, 20, 35, 46, 37, 16, 44, 13, 48, 11, 21, 49, 1, 40, 45, 33, 12, 27, 28, 30, 10, 40, 15, 34, 31, 21, 1, 24, 0, 23, 45, 33, 35, 48, 38, 47, 13, 46, 7, 18, 36, 26, 43, 30, 19, 14, 16, 8, 49, 27, 20, 44, 22, 9, 39, 41, 4, 3, 42, 6, 11, 28, 12, 37, 32, 2, 29, 25, 5, 17, 0, 45, 11, 12, 29, 10, 19, 21, 23, 20, 47, 15, 7, 6, 35, 32, 30, 37, 49, 22, 2, 42, 36, 17, 24, 43, 46, 4, 33, 38, 41, 44, 1, 39, 5, 25, 34, 26, 13, 48, 14, 27, 18, 28, 31, 16, 40, 3, 8, 9, 36, 45, 44, 46, 48, 22, 29, 11, 6, 20, 31, 0, 26, 30, 2, 34, 17, 41, 49, 24, 8, 4, 43, 13, 33, 23, 19, 21, 39, 27, 3, 25, 42, 40, 7, 38, 12, 14, 10, 16, 5, 15, 47, 37, 18, 28, 1, 32, 35, 9, 5, 13, 35, 7, 40, 44, 29, 25, 12, 22, 23, 1, 4, 21, 9, 19, 32, 39, 17, 24, 6, 43, 14, 26, 48, 31, 33, 2, 28, 38, 42, 18, 20, 8, 0, 45, 16, 37, 49, 15, 11, 46, 41, 34, 47, 30, 27, 10, 3, 36, 0, 11, 26, 39, 42, 15, 14, 6, 20, 17, 31, 38, 18, 49, 21, 9, 34, 48, 22, 10, 30, 43, 28, 4, 40, 37, 47, 23, 7, 5, 19, 29, 41, 35, 8, 32, 13, 25, 27, 36, 45, 2, 12, 33, 3, 44, 1, 46, 16, 24, 24, 47, 34, 39, 2, 32, 7, 46, 12, 41, 33, 16, 21, 4, 23, 48, 1, 31, 5, 45, 40, 14, 13, 6, 0, 19, 10, 26, 11, 36, 42, 49, 27, 15, 35, 37, 20, 29, 25, 17, 22, 28, 44, 30, 8, 3, 43, 9, 38, 18, 13, 16, 44, 38, 6, 19, 15, 17, 8, 45, 4, 18, 28, 42, 33, 43, 32, 34, 23, 14, 46, 0, 49, 21, 40, 11, 12, 36, 22, 26, 5, 48, 29, 2, 24, 35, 47, 31, 30, 3, 41, 25, 37, 7, 27, 20, 1, 9, 39, 10, 27, 14, 12, 33, 30, 31, 34, 36, 15, 16, 25, 32, 49, 47, 13, 39, 5, 17, 46, 21, 42, 23, 38, 44, 37, 29, 43, 9, 22, 3, 28, 10, 7, 8, 48, 6, 35, 11, 2, 20, 40, 4, 45, 24, 1, 26, 19, 0, 41, 18, 24, 29, 41, 6, 35, 47, 43, 22, 40, 45, 10, 19, 38, 20, 39, 42, 30, 11, 33, 23, 17, 37, 4, 36, 21, 18, 7, 27, 12, 13, 48, 1, 2, 28, 16, 44, 8, 3, 32, 46, 5, 0, 34, 31, 15, 9, 49, 26, 25, 14]);